10J3M/DAT/10J3MUTL-5.dat
10 3
39.7954 39.7954
29.7869 29.7869
42.9624 42.9624
31.8061 31.8061
22.9536 22.9536
20.2672 20.2672
46.7856 46.7856
20.5531 20.5531
12.4917 12.4917
40.3306 40.3306
76.9331