10J3M/SOL/10J3MUTL-5.sol
solution status: optimal solution found
objective value:                              73.9784
x#1#2                               0.510773778490911 	(obj:0)
x#1#3                               0.489226221509089 	(obj:0)
x#3#1                                               1 	(obj:0)
x#4#3                                               1 	(obj:0)
x#5#1                                               1 	(obj:0)
x#6#1                                               1 	(obj:0)
x#7#3                               0.314831290521035 	(obj:0)
x#8#2                                               1 	(obj:0)
x#9#1                                               1 	(obj:0)
x#10#1                              0.393012277302375 	(obj:0)
x#10#2                              0.606987722697625 	(obj:0)
z                                             73.9784 	(obj:1)
